c ---- [ banner ] ------------------------------------------------------------
c
c Kissat SAT Solver
c 
c Copyright (c) 2021-2024 Armin Biere University of Freiburg
c Copyright (c) 2019-2021 Armin Biere Johannes Kepler University Linz
c 
c Version 4.0.1 43f02cf3e992cb44653b35e5cb26f93281552ae0
c gcc (Ubuntu 13.2.0-23ubuntu4) 13.2.0 -W -Wall -O3 -DNDEBUG
c Thu Sep 12 12:27:46 CEST 2024 Linux abryzen9 6.8.0-41-generic x86_64
c
c ---- [ parsing ] -----------------------------------------------------------
c
c opened and reading DIMACS file:
c
c   /data/artifact/AMulet2.0_artifact/exp4/cnf_dc2_64/64_64_U_SP_DT_BK_GenMul_dc2.cnf
c
c parsed 'p cnf 28982 127883' header
c closing input after reading 2557743 bytes (2 MB)
c finished parsing after 0.02 seconds
c
c ---- [ options ] -----------------------------------------------------------
c
c --stable=0                       (different from default '1')
c
c ---- [ solving ] -----------------------------------------------------------
c
c  seconds switched rate     size/glue tier1  binary           remaining
c         MB reductions conflicts size  tier2     irredundant
c          level restarts redundant glue  trail           variables
c
c *  0.02 10 0 0 0  0 0   0   0 0.0 0 0 0 0 0% 11031 116850 28979 100%
c (  0.04 12 0 0 0  0 0   0   0 0.0 0 0 0 0 0% 11031 116850 28979 100%
c .  0.04 12 0 0 0  0 0   0   0 0.0 0 0 0 0 0% 11027 116850 28979 100%
c c  0.13 17 0 0 0  0 0   0   0 0.0 0 0 0 0 0% 17595 103714 25695 89%
c d  0.14 18 0 0 0  0 0   0   0 0.0 0 0 0 0 0% 11027 103714 25695 89%
c =  0.20 18 0 0 0  0 0   0   0 0.0 0 0 0 0 0% 11589 103712 25414 88%
c d  0.21 18 0 0 0  0 0   0   0 0.0 0 0 0 0 0% 11027 103712 25414 88%
c f  0.33 17 0 0 0  0 0   0   0 0.0 0 0 0 0 0% 15706 96349 28041 97%
c e  0.54 26 0 0 0  0 0   0   0 0.0 0 0 0 0 0% 9552 104145 19212 66%
c )  0.54 26 0 0 0  0 0   0   0 0.0 0 0 0 0 0% 9552 104145 19212 66%
c {  0.56 26 0 0 0  0 0   0   0 0.0 0 0 2 6 0% 9552 104145 19212 66%
c -  0.93 28 276 0 1 147 32 1000 757 4.2 33 8 4 14 35% 9564 104145 19212 66%
c -  1.30 28 262 0 2 268 34 2000 1350 4.7 42 9 4 14 33% 9584 104145 19212 66%
c c  1.59 22 267 0 2 348 36 2502 1789 4.6 42 9 4 14 33% 9653 103897 19177 66%
c d  1.60 22 267 0 2 348 36 2502 1785 4.6 42 9 4 14 33% 9583 103897 19177 66%
c u  1.63 22 267 0 2 348 36 2502 1452 4.6 42 9 4 14 33% 9589 103897 19177 66%
c v  1.67 22 267 0 2 348 36 2502 1310 4.6 42 9 4 14 33% 9589 103897 19177 66%
c w  1.71 27 267 0 2 348 36 2502 1310 4.6 42 9 4 14 33% 9589 103897 19177 66%
c x  1.73 27 267 0 2 348 36 2502 1310 4.6 42 9 4 14 33% 9589 103882 19177 66%
c =  1.83 27 267 0 2 348 36 2502 1310 4.6 42 9 4 14 33% 10003 103882 18970 65%
c
c  seconds   switched   rate       size/glue tier1     binary          remaining
c         MB  reductions conflicts       size  tier2      irredundant
c           level restarts    redundant    glue    trail          variables
c
c d  1.84 27 267 0 2 348 36 2502 1310 4.6 42 9 4 14 33% 9587 103882 18970 65%
c f  1.89 27 267 0 2 348 36 2502 1310 4.6 42 9 4 14 33% 10159 102742 19538 67%
c u  2.00 27 267 0 2 348 36 2502 1265 4.6 42 9 4 14 33% 10159 102742 19538 67%
c v  2.03 27 267 0 2 348 36 2502 1196 4.6 42 9 4 14 33% 10159 102742 19538 67%
c w  2.09 27 267 0 2 348 36 2502 1196 4.6 42 9 4 14 33% 10159 102742 19538 67%
c =  2.17 27 267 0 2 348 36 2502 1196 4.6 42 9 4 14 33% 10557 102742 19339 67%
c d  2.18 27 267 0 2 348 36 2502 1196 4.6 42 9 4 14 33% 10102 102742 19339 67%
c f  2.23 27 267 0 2 348 36 2502 1196 4.6 42 9 4 14 33% 10178 102628 19377 67%
c -  2.55 27 264 0 3 433 36 3414 1573 4.9 46 9 4 14 34% 10208 102628 19377 67%
c -  2.91 27 252 0 4 551 32 5146 2627 4.5 40 9 4 15 33% 10243 102628 19377 67%
c -  3.52 27 261 0 5 775 34 7146 3680 4.5 41 9 4 14 33% 10298 102628 19377 67%
c d  3.65 27 273 0 5 822 33 7705 4182 4.5 41 9 4 14 33% 10218 102628 19334 67%
c u  3.70 27 273 0 5 822 33 7705 3500 4.5 41 9 4 14 33% 10231 102628 19334 67%
c v  3.74 27 273 0 5 822 33 7705 3312 4.5 41 9 4 14 33% 10231 102628 19334 67%
c w  3.77 27 273 0 5 822 33 7705 3312 4.5 41 9 4 14 33% 10231 102628 19334 67%
c x  3.81 27 273 0 5 822 33 7705 3312 4.5 41 9 4 14 33% 10231 101783 19334 67%
c =  3.96 27 273 0 5 822 33 7705 3312 4.5 41 9 4 14 33% 11313 101783 18793 65%
c d  3.96 27 273 0 5 822 33 7705 3274 4.5 41 9 4 14 33% 10094 101783 18793 65%
c t  3.98 27 273 0 5 822 33 7705 3274 4.5 41 9 4 14 33% 10089 101783 18793 65%
c f  4.03 27 273 0 5 822 33 7705 3274 4.5 41 9 4 14 33% 11133 100212 19315 67%
c
c  seconds   switched   rate       size/glue tier1     binary           remaining
c         MB  reductions conflicts       size  tier2       irredundant
c           level restarts    redundant    glue    trail           variables
c
c c  4.11 28 273 0 5 822 33 7705 3274 4.5 41 9 4 14 33% 11135 100208 19314 67%
c d  4.12 28 273 0 5 822 33 7705 3274 4.5 41 9 4 14 33% 11133 100208 19314 67%
c u  4.16 28 273 0 5 822 33 7705 3107 4.5 41 9 4 14 33% 11134 100208 19314 67%
c v  4.20 28 273 0 5 822 33 7705 2969 4.5 41 9 4 14 33% 11134 100208 19314 67%
c w  4.24 28 273 0 5 822 33 7705 2968 4.5 41 9 4 14 33% 11134 100208 19314 67%
c x  4.27 28 273 0 5 822 33 7705 2968 4.5 41 9 4 14 33% 11134 99725 19314 67%
c =  4.42 28 273 0 5 822 33 7705 2968 4.5 41 9 4 14 33% 12172 99725 18795 65%
c d  4.43 28 273 0 5 822 33 7705 2961 4.5 41 9 4 14 33% 10976 99725 18795 65%
c t  4.45 28 273 0 5 822 33 7705 2961 4.5 41 9 4 14 33% 10928 99725 18795 65%
c f  4.50 28 273 0 5 822 33 7705 2961 4.5 41 9 4 14 33% 12673 97106 19668 68%
c -  4.74 28 270 0 6 884 31 9382 3700 4.3 38 9 3 13 31% 12698 97106 19668 68%
c o  4.88 28 269 0 6 926 31 10025 4248 4.3 38 9 3 13 31% 12718 97106 19668 68%
c -  5.26 28 259 0 7 1036 28 11831 4946 4.2 37 9 3 13 30% 12743 97106 19668 68%
c s  5.44 28 258 0 7 1071 28 12507 5577 4.2 36 9 3 13 30% 12755 90602 19668 68%
c e  5.55 28 258 0 7 1071 28 12507 5577 4.2 36 9 3 13 30% 11880 91241 19161 66%
c s  5.56 28 258 0 7 1071 28 12507 5577 4.2 36 9 3 13 30% 11883 90713 19161 66%
c e  5.57 28 258 0 7 1071 28 12507 5577 4.2 36 9 3 13 30% 11878 90717 19159 66%
c ^  5.57 28 258 0 7 1071 28 12507 5577 4.2 36 9 3 13 30% 11878 90717 19159 66%
c -  6.09 28 255 0 8 1210 27 14476 5972 4.2 36 9 3 12 30% 11946 90717 19159 66%
c d  6.46 28 291 0 8 1316 28 15783 7135 4.4 37 9 3 12 30% 11541 90715 18908 65%
c
c  seconds   switched    rate        size/glue tier1     binary          remaining
c         MB  reductions   conflicts       size  tier2       irredundant
c           level  restarts     redundant    glue    trail          variables
c
c u  6.51 28 291 0 8 1316 28 15783 5955 4.4 37 9 3 12 30% 11549 90715 18908 65%
c v  6.56 28 291 0 8 1316 28 15783 5588 4.4 37 9 3 12 30% 11549 90715 18908 65%
c w  6.60 28 291 0 8 1316 28 15783 5588 4.4 37 9 3 12 30% 11549 90715 18908 65%
c x  6.63 28 291 0 8 1316 28 15783 5588 4.4 37 9 3 12 30% 11566 90585 18908 65%
c =  6.82 28 291 0 8 1316 28 15783 5588 4.4 37 9 3 12 30% 12220 90581 18581 64%
c d  6.82 28 291 0 8 1316 28 15783 5491 4.4 37 9 3 12 30% 11452 90581 18581 64%
c t  6.84 28 291 0 8 1316 28 15783 5491 4.4 37 9 3 12 30% 11442 90581 18581 64%
c f  6.90 28 291 0 8 1316 28 15783 5491 4.4 37 9 3 12 30% 11587 90290 18654 64%
c u  6.95 28 291 0 8 1316 28 15783 5318 4.4 37 9 3 12 30% 11587 90290 18654 64%
c v  7.00 28 291 0 8 1316 28 15783 5088 4.4 37 9 3 12 30% 11587 90290 18654 64%
c w  7.05 28 291 0 8 1316 28 15783 5087 4.4 37 9 3 12 30% 11587 90290 18654 64%
c x  7.08 28 291 0 8 1316 28 15783 5087 4.4 37 9 3 12 30% 11587 88729 18654 64%
c =  7.27 28 291 0 8 1316 28 15783 5087 4.4 37 9 3 12 30% 13065 88729 17915 62%
c d  7.28 28 291 0 8 1316 28 15783 5025 4.4 37 9 3 12 30% 10895 88729 17915 62%
c t  7.30 28 291 0 8 1316 28 15783 5025 4.4 37 9 3 12 30% 10894 88729 17915 62%
c -  7.71 28 286 0 9 1424 27 17304 5409 4.4 37 9 3 12 31% 10932 88729 17915 62%
c o  8.13 28 300 0 9 1626 28 20056 7810 4.3 37 9 3 12 31% 10972 88729 17915 62%
c -  8.18 28 298 0 10 1653 28 20304 6793 4.3 37 9 2 12 31% 10975 88729 17915 62%
c -  8.72 28 290 0 11 1880 28 23467 8080 4.3 37 9 2 11 31% 11026 88729 17915 62%
c s  8.81 28 288 0 11 1903 27 25008 9243 4.3 36 8 2 11 30% 11052 86469 17915 62%
c
c  seconds   switched     rate        size/glue tier1     binary         remaining
c         MB   reductions   conflicts       size  tier2      irredundant
c           level   restarts     redundant    glue    trail         variables
c
c e  8.87 28 288 0 11 1903 27 25008 9243 4.3 36 8 2 11 30% 9000 89340 16781 58%
c s  8.88 28 288 0 11 1903 27 25008 9243 4.3 36 8 2 11 30% 9008 89087 16781 58%
c e  8.88 28 288 0 11 1903 27 25008 9243 4.3 36 8 2 11 30% 9008 89073 16778 58%
c ^  8.88 28 288 0 11 1903 27 25008 9243 4.3 36 8 2 11 30% 9008 89073 16778 58%
c -  9.21 28 282 0 12 2089 27 26784 8327 4.2 36 9 2 10 30% 9051 89073 16778 58%
c c  9.25 28 283 0 12 2089 27 26911 8424 4.2 36 9 2 10 30% 9106 88819 16740 58%
c d  9.25 28 283 0 12 2089 27 26911 8379 4.2 36 9 2 10 30% 8725 88819 16561 57%
c u  9.28 28 283 0 12 2089 27 26911 7463 4.2 36 9 2 10 30% 8753 88819 16561 57%
c v  9.31 28 283 0 12 2089 27 26911 6368 4.2 36 9 2 10 30% 8756 88819 16561 57%
c w  9.31 28 283 0 12 2089 27 26911 6368 4.2 36 9 2 10 30% 8756 88819 16561 57%
c x  9.37 28 283 0 12 2089 27 26911 6367 4.2 36 9 2 10 30% 8757 88260 16561 57%
c =  9.55 28 283 0 12 2089 27 26911 6367 4.2 36 9 2 10 30% 12577 88260 14651 51%
c d  9.56 28 283 0 12 2089 27 26911 6064 4.2 36 9 2 10 30% 8646 88260 14645 51%
c t  9.57 28 283 0 12 2089 27 26911 6064 4.2 36 9 2 10 30% 8642 88260 14645 51%
c f  9.61 28 283 0 12 2089 27 26911 6064 4.2 36 9 2 10 30% 8642 88249 14648 51%
c u  9.64 28 283 0 12 2089 27 26911 5601 4.2 36 9 2 10 30% 8645 88249 14648 51%
c v  9.66 28 283 0 12 2089 27 26911 5464 4.2 36 9 2 10 30% 8645 88249 14648 51%
c w  9.67 28 283 0 12 2089 27 26911 5463 4.2 36 9 2 10 30% 8645 88249 14648 51%
c x  9.75 28 283 0 12 2089 27 26911 5463 4.2 36 9 2 10 30% 8645 80402 14648 51%
c =  9.94 28 283 0 12 2089 27 26911 5463 4.2 36 9 2 10 30% 10283 80350 13824 48%
c
c  seconds   switched     rate        size/glue tier1     binary         remaining
c         MB   reductions   conflicts       size  tier2      irredundant
c           level   restarts     redundant    glue    trail         variables
c
c d  9.95 28 283 0 12 2089 27 26911 5385 4.2 36 9 2 10 30% 8624 80350 13824 48%
c f  9.98 28 283 0 12 2089 27 26911 5385 4.2 36 9 2 10 30% 8628 80340 13826 48%
c - 10.21 28 279 0 13 2212 26 30248 7258 4.0 34 8 2 9 29% 8650 80339 13826 48%
c - 10.67 28 269 0 14 2439 25 33853 9277 3.9 33 8 2 9 29% 8684 80338 13826 48%
c - 11.08 28 259 0 15 2674 24 37598 10931 3.9 32 8 2 9 29% 8708 80336 13826 48%
c o 11.33 28 260 0 15 2818 24 40057 13191 3.8 31 8 2 9 29% 8733 80335 13826 48%
c c 11.52 28 259 0 15 2911 24 41244 14205 3.8 31 8 2 9 29% 8814 79968 13760 47%
c d 11.52 28 259 0 15 2911 24 41244 14000 3.8 31 8 2 9 29% 8682 79968 13760 47%
c u 11.56 28 259 0 15 2911 24 41244 11787 3.8 31 8 2 9 29% 8692 79968 13760 47%
c v 11.59 28 259 0 15 2911 24 41244 11184 3.8 31 8 2 9 29% 8692 79968 13760 47%
c w 11.62 28 259 0 15 2911 24 41244 11184 3.8 31 8 2 9 29% 8692 79968 13760 47%
c x 11.66 28 259 0 15 2911 24 41244 11184 3.8 31 8 2 9 29% 8694 73239 13760 47%
c d 11.80 28 259 0 15 2911 24 41244 11179 3.8 31 8 2 9 29% 8684 73239 13755 47%
c t 11.81 28 259 0 15 2911 24 41244 11179 3.8 31 8 2 9 29% 8681 73239 13755 47%
c f 11.82 28 259 0 15 2911 24 41244 11179 3.8 31 8 2 9 29% 8685 73223 13757 47%
c c 11.85 28 259 0 15 2911 24 41244 11168 3.8 31 8 2 9 29% 8695 73183 13752 47%
c d 11.86 28 259 0 15 2911 24 41244 11168 3.8 31 8 2 9 29% 8685 73183 13752 47%
c u 11.89 28 259 0 15 2911 24 41244 10781 3.8 31 8 2 9 29% 8687 73183 13752 47%
c v 11.94 28 259 0 15 2911 24 41244 9862 3.8 31 8 2 9 29% 8690 73183 13752 47%
c w 11.97 28 259 0 15 2911 24 41244 9859 3.8 31 8 2 9 29% 8690 73183 13752 47%
c
c  seconds   switched     rate        size/glue tier1    binary         remaining
c         MB   reductions   conflicts       size  tier2     irredundant
c           level   restarts     redundant    glue   trail         variables
c
c x 12.00 28 259 0 15 2911 24 41244 9859 3.8 31 8 2 9 29% 8692 72442 13752 47%
c d 12.01 28 259 0 15 2911 24 41244 9856 3.8 31 8 2 9 29% 8688 72442 13750 47%
c t 12.02 28 259 0 15 2911 24 41244 9856 3.8 31 8 2 9 29% 8686 72442 13750 47%
c - 12.08 28 258 0 16 2959 24 41470 8639 3.8 31 8 2 9 29% 8688 72442 13750 47%
c - 12.42 28 250 0 17 3206 24 45472 10614 3.8 31 8 2 8 28% 8723 72442 13750 47%
c - 12.97 28 252 0 18 3525 24 49595 12502 3.8 31 8 2 8 27% 8794 72439 13750 47%
c s 13.43 28 248 0 18 3690 23 52108 14793 3.8 30 8 2 8 27% 8809 69334 13750 47%
c e 13.51 28 248 0 18 3690 23 52108 14793 3.8 30 8 2 8 27% 8420 69800 13432 46%
c s 13.51 28 248 0 18 3690 23 52108 14793 3.8 30 8 2 8 27% 8421 69592 13432 46%
c e 13.52 28 248 0 18 3690 23 52108 14793 3.8 30 8 2 8 27% 8421 69594 13431 46%
c ^ 13.52 28 248 0 18 3690 23 52108 14793 3.8 30 8 2 8 27% 8421 69594 13431 46%
c - 13.85 28 245 0 19 3840 24 53837 13255 3.7 30 8 2 8 27% 8439 69594 13431 46%
c - 14.85 28 236 0 20 4266 24 58195 15016 3.7 31 8 2 7 28% 8462 69594 13431 46%
c d 15.10 28 235 0 20 4395 24 58897 15653 3.8 31 8 2 7 28% 8431 69594 13415 46%
c u 15.18 28 235 0 20 4395 24 58897 13304 3.8 31 8 2 7 28% 8446 69594 13415 46%
c v 15.26 28 235 0 20 4395 24 58897 11734 3.8 31 8 2 7 28% 8448 69594 13415 46%
c w 15.31 28 235 0 20 4395 24 58897 11731 3.8 31 8 2 7 28% 8448 69594 13415 46%
c x 15.41 28 235 0 20 4395 24 58897 11730 3.8 31 8 2 7 28% 8449 69117 13415 46%
c = 15.73 28 235 0 20 4395 24 58897 11730 3.8 31 8 2 7 28% 9071 69117 13104 45%
c d 15.74 28 235 0 20 4395 24 58897 11599 3.8 31 8 2 7 28% 8415 69117 13097 45%
c
c  seconds   switched     rate         size/glue tier1    binary         remaining
c         MB   reductions   conflicts        size  tier2     irredundant
c           level   restarts      redundant    glue   trail         variables
c
c t 15.75 28 235 0 20 4395 24 58897 11599 3.8 31 8 2 7 28% 8410 69117 13097 45%
c f 15.78 28 235 0 20 4395 24 58897 11599 3.8 31 8 2 7 28% 8405 69117 13098 45%
c c 15.84 28 235 0 20 4395 24 58897 11567 3.8 31 8 2 7 28% 8436 68989 13082 45%
c d 15.85 28 235 0 20 4395 24 58897 11564 3.8 31 8 2 7 28% 8404 68989 13082 45%
c u 15.91 28 235 0 20 4395 24 58897 11023 3.8 31 8 2 7 28% 8409 68989 13082 45%
c v 15.96 28 235 0 20 4395 24 58897 10749 3.8 31 8 2 7 28% 8409 68989 13082 45%
c w 16.08 28 235 0 20 4395 24 58897 10700 3.8 31 8 2 7 28% 8409 68989 13082 45%
c x 16.16 28 235 0 20 4395 24 58897 10699 3.8 31 8 2 7 28% 8409 68208 13082 45%
c = 16.50 28 235 0 20 4395 24 58897 10699 3.8 31 8 2 7 28% 8885 68208 12844 44%
c d 16.51 28 235 0 20 4395 24 58897 10409 3.8 31 8 2 7 28% 8375 68208 12843 44%
c t 16.53 28 235 0 20 4395 24 58897 10409 3.8 31 8 2 7 28% 8374 68208 12843 44%
c - 17.26 28 233 0 21 4730 24 62669 12165 3.7 31 8 2 7 28% 8396 68208 12843 44%
c - 18.17 28 224 0 22 5108 23 67251 14354 3.7 31 8 2 7 28% 8429 68208 12843 44%
c i 18.25 28 224 0 22 5134 23 69060 15615 3.7 30 8 2 7 27% 8488 68208 12842 44%
c o 18.51 28 223 0 22 5265 23 70066 16531 3.7 30 8 2 7 27% 8500 68208 12842 44%
c i 18.81 28 224 0 22 5399 23 71063 17302 3.7 31 8 2 7 27% 8522 68208 12841 44%
c - 19.11 28 223 0 23 5540 23 71943 15969 3.7 31 8 2 7 27% 8522 68208 12841 44%
c - 19.91 28 216 0 24 5876 23 76738 17674 3.6 30 8 2 7 27% 8571 68208 12841 44%
c i 20.08 28 216 0 24 5945 23 77382 18281 3.6 30 8 2 7 27% 8578 68208 12839 44%
c i 20.31 28 214 0 24 6040 23 78235 19090 3.6 30 8 2 7 27% 8581 68208 12838 44%
c
c  seconds   switched     rate         size/glue tier1    binary         remaining
c         MB   reductions   conflicts        size  tier2     irredundant
c           level   restarts      redundant    glue   trail         variables
c
c i 20.31 28 214 0 24 6050 23 78326 19129 3.6 30 8 2 7 27% 8589 68208 12837 44%
c i 20.31 28 214 0 24 6050 23 78354 19137 3.6 30 8 2 7 27% 8592 68208 12836 44%
c i 20.48 28 214 0 24 6118 23 79044 19723 3.6 30 8 2 7 27% 8608 68208 12835 44%
c c 20.84 28 213 0 24 6253 23 79998 20583 3.6 30 8 2 7 27% 8657 67547 12713 44%
c d 20.84 28 213 0 24 6253 23 79998 19840 3.6 30 8 2 7 27% 8439 67529 12713 44%
c d 20.85 28 213 0 24 6253 23 79998 19822 3.6 30 8 2 7 27% 8419 67529 12703 44%
c u 20.94 28 213 0 24 6253 23 79998 16531 3.6 30 8 2 7 27% 8454 67529 12699 44%
c v 21.04 28 213 0 24 6253 23 79998 14482 3.6 30 8 2 7 27% 8458 67529 12699 44%
c w 21.10 28 213 0 24 6253 23 79998 14467 3.6 30 8 2 7 27% 8457 67529 12699 44%
c x 21.20 28 213 0 24 6253 23 79998 14462 3.6 30 8 2 7 27% 8470 65526 12699 44%
c = 21.26 28 213 0 24 6253 23 79998 14462 3.6 30 8 2 7 27% 8470 65526 12698 44%
c d 21.27 28 213 0 24 6253 23 79998 14423 3.6 30 8 2 7 27% 8429 65526 12677 44%
c d 21.27 28 213 0 24 6253 23 79998 14423 3.6 30 8 2 7 27% 8424 65526 12675 44%
c t 21.28 28 213 0 24 6253 23 79998 14423 3.6 30 8 2 7 27% 8413 65526 12675 44%
c f 21.30 28 213 0 24 6253 23 79998 14423 3.6 30 8 2 7 27% 8417 65511 12677 44%
c c 21.35 28 213 0 24 6253 23 79998 14413 3.6 30 8 2 7 27% 8418 65469 12672 44%
c d 21.35 28 213 0 24 6253 23 79998 14413 3.6 30 8 2 7 27% 8408 65469 12672 44%
c u 21.43 28 213 0 24 6253 23 79998 13685 3.6 30 8 2 7 27% 8415 65469 12672 44%
c v 21.49 28 213 0 24 6253 23 79998 13313 3.6 30 8 2 7 27% 8415 65469 12672 44%
c w 21.62 28 213 0 24 6253 23 79998 13302 3.6 30 8 2 7 27% 8415 65469 12672 44%
c
c  seconds   switched     rate         size/glue tier1    binary         remaining
c         MB   reductions   conflicts        size  tier2     irredundant
c           level   restarts      redundant    glue   trail         variables
c
c x 21.72 28 213 0 24 6253 23 79998 13300 3.6 30 8 2 7 27% 8416 64289 12672 44%
c = 22.14 28 213 0 24 6253 23 79998 13300 3.6 30 8 2 7 27% 8758 64177 12486 43%
c d 22.14 28 213 0 24 6253 23 79998 12928 3.6 30 8 2 7 27% 8373 64177 12486 43%
c t 22.16 28 213 0 24 6253 23 79998 12928 3.6 30 8 2 7 27% 8371 64177 12486 43%
c i 22.17 28 213 0 24 6253 23 79998 12928 3.6 30 8 2 7 27% 8371 64177 12486 43%
c - 22.34 28 210 0 25 6341 23 81637 12619 3.6 30 8 2 7 27% 8363 64173 12486 43%
c - 22.65 28 202 0 26 6467 21 86639 14867 3.5 29 8 2 7 27% 8460 64169 12486 43%
c i 23.01 28 196 0 26 6708 21 90764 18179 3.4 28 8 2 7 26% 8528 64169 12485 43%
c i 23.01 28 196 0 26 6708 21 90781 18184 3.4 28 8 2 7 26% 8530 64169 12484 43%
c - 23.12 28 194 0 27 6745 21 91738 16786 3.4 28 8 2 7 26% 8528 64169 12484 43%
c i 23.12 28 194 0 27 6749 21 92020 16988 3.4 28 8 2 7 26% 8542 64169 12483 43%
c i 23.18 28 193 0 27 6760 20 92762 17654 3.4 28 8 2 7 26% 8547 64169 12482 43%
c i 23.38 28 190 0 27 6835 20 94663 19385 3.4 28 8 2 7 26% 8557 64169 12481 43%
c i 23.46 28 189 0 27 6890 20 95208 19851 3.4 28 8 2 7 27% 8565 64169 12480 43%
c i 23.47 28 189 0 27 6903 20 95334 19931 3.4 27 8 2 7 26% 8568 64169 12479 43%
c i 23.50 28 188 0 27 6921 20 95589 20138 3.4 27 8 2 7 26% 8571 64169 12478 43%
c i 23.52 28 188 0 27 6936 20 95751 20278 3.4 27 8 2 7 26% 8573 64169 12476 43%
c s 23.53 28 188 0 27 6949 20 95850 20366 3.4 27 8 2 7 26% 8574 63190 12476 43%
c e 23.63 28 188 0 27 6949 20 95850 20366 3.4 27 8 2 7 26% 5585 69718 10904 38%
c 2 23.63 28 188 0 27 6949 20 95850 20366 3.4 27 8 2 7 26% 5584 69718 10904 38%
c
c  seconds   switched     rate         size/glue tier1    binary         remaining
c         MB   reductions   conflicts        size  tier2     irredundant
c           level   restarts      redundant    glue   trail         variables
c
c s 23.64 28 188 0 27 6949 20 95850 20366 3.4 27 8 2 7 26% 5584 69115 10904 38%
c e 23.66 28 188 0 27 6949 20 95850 20366 3.4 27 8 2 7 26% 5577 69175 10875 38%
c ^ 23.66 28 188 0 27 6949 20 95850 20366 3.4 27 8 2 7 26% 5577 69175 10875 38%
c i 23.67 28 188 0 27 6957 20 96146 12908 3.4 27 8 2 7 26% 5592 69175 10874 38%
c i 23.68 28 187 0 27 6960 20 96345 13066 3.4 27 8 2 7 26% 5597 69175 10873 38%
c i 23.70 28 187 0 27 6980 20 96593 13266 3.4 27 8 2 7 26% 5598 69175 10872 38%
c i 23.71 28 187 0 27 6982 20 96625 13292 3.4 27 8 2 7 26% 5599 69175 10871 38%
c i 23.71 28 187 0 27 6986 20 96792 13402 3.4 27 8 2 7 26% 5603 69175 10870 38%
c i 23.71 28 186 0 27 6988 20 96866 13455 3.4 27 8 2 7 26% 5607 69175 10869 38%
c - 23.73 28 186 0 28 6994 20 96935 12207 3.4 27 8 2 7 26% 5610 69128 10869 38%
c i 23.74 28 185 0 28 7011 20 97297 12524 3.3 27 8 2 7 26% 5613 69128 10867 37%
c i 23.76 28 185 0 28 7028 20 97566 12746 3.3 27 8 2 7 26% 5619 69128 10866 37%
c i 23.76 28 185 0 28 7036 20 97707 12848 3.3 27 8 2 7 26% 5625 69128 10865 37%
c i 23.77 28 184 0 28 7041 19 97949 13037 3.3 27 8 2 7 26% 5633 69128 10862 37%
c i 23.77 28 183 0 28 7042 19 98189 13187 3.3 27 8 2 7 26% 5640 69128 10861 37%
c i 23.77 28 183 0 28 7042 19 98323 13259 3.3 27 8 2 7 26% 5647 69128 10859 37%
c i 23.77 28 183 0 28 7042 19 98327 13259 3.3 27 8 2 7 26% 5648 69128 10855 37%
c i 23.77 28 183 0 28 7042 19 98332 13259 3.3 27 8 2 7 26% 5649 69128 10851 37%
c } 23.77 28 183 0 28 7042 19 98334 13259 3.3 27 8 2 7 26% 5649 69128 10848 37%
c 0 23.77 28 183 0 28 7042 19 98334 13259 3.3 27 8 2 7 26% 5649 69128 10848 37%
c
c ---- [ result ] ------------------------------------------------------------
c
s UNSATISFIABLE
c
c ---- [ profiling ] ---------------------------------------------------------
c
c          16.07   67.59 %  search
c          16.07   67.59 %  focused
c           7.14   30.04 %  simplify
c           6.92   29.13 %  probe
c           2.67   11.22 %  vivify
c           2.55   10.71 %  sweep
c           0.58    2.43 %  congruence
c           0.55    2.30 %  factor
c           0.51    2.14 %  eliminate
c           0.50    2.10 %  preprocess
c           0.43    1.79 %  substitute
c           0.20    0.85 %  fastel
c           0.14    0.58 %  reduce
c           0.11    0.45 %  transitive
c           0.09    0.38 %  subsume
c           0.05    0.22 %  backbone
c           0.04    0.17 %  lucky
c           0.02    0.09 %  parse
c =============================================
c          23.77  100.00 %  total
c
c ---- [ statistics ] --------------------------------------------------------
c
c chronological:                         3403                3 %  conflicts
c conflicts:                            98334             4136.54 per second
c congruent:                             3571               12 %  variables
c decisions:                          1919595               19.52 per conflict
c eliminated:                           12395               43 %  variables
c factored:                              4711               16 %  variables
c fast_eliminated:                       8829               71 %  eliminated
c fast_strengthened:                       19                3 %  per strengthened
c fast_subsumed:                           71                0 %  per subsumed
c iterations:                              31                0 %  variables
c propagations:                      86795525          3651156    per second
c reductions:                              28             3512    interval
c reordered:                                4            24584    interval
c restarts:                              7042               14    interval
c strengthened:                           571                0 %  checks
c substituted:                          10377               36 %  variables
c subsumed:                             14431                1 %  checks
c switched:                                 0                0    interval
c vivified:                             51811               12 %  checks
c
c ---- [ glue usage ] --------------------------------------------------------
c
c focused glue 2   used 55778 clauses 24.62% accumulated 71.05% tier1
c focused glue 3   used 19121 clauses  8.44% accumulated 79.49%
c focused glue 4-5 used 18417 clauses  8.13% accumulated 87.62%
c focused glue 6   used  5262 clauses  2.32% accumulated 89.94%
c focused glue 7   used  3909 clauses  1.73% accumulated 91.67% tier2
c
c ---- [ resources ] ---------------------------------------------------------
c
c maximum-resident-set-size:         29007872 bytes         28 MB
c process-time:                            24s              23.77 seconds
c
c ---- [ shutting down ] -----------------------------------------------------
c
c exit 20
